p cnf 10 45
-4 -7 9 0
2 -8 -9 0
-2 6 10 0
2 1 3 0
7 -6 1 0
-10 -1 3 0
2 10 7 0
-7 -5 -1 0
2 -1 -3 0
9 -5 -8 0
-1 -3 9 0
-5 4 -10 0
4 -3 6 0
8 -6 -1 0
3 1 -4 0
6 -1 -7 0
9 -3 5 0
-6 9 -8 0
3 -7 2 0
-7 -10 -9 0
3 2 10 0
8 -10 -6 0
-3 -5 7 0
-2 5 8 0
9 -1 -6 0
9 -8 2 0
10 -5 -8 0
7 2 -1 0
3 -4 -2 0
-3 8 -1 0
4 9 5 0
-9 -2 -4 0
9 -4 -2 0
9 -1 -6 0
-5 -2 -6 0
-10 4 9 0
-8 -4 -1 0
-7 -9 8 0
9 -10 7 0
6 7 -8 0
2 -4 -5 0
-8 -3 -7 0
6 -8 -9 0
3 -10 -7 0
9 -8 -7 0
